p cnf 35 97
a 32 0
e 1 2 3 4 5 6 7 8 9 10 11 12 13 14 15 16 17 18 19 20 21 22 23 24 25 26 27 28 29 30 31 33 34 35 0
3 -1 0
3 -2 0
1 2 -3 0
4 -2 0
4 1 0
2 -1 -4 0
-5 -3 0
-5 -4 0
3 4 5 0
-7 5 0
-7 6 0
-5 -6 7 0
10 -8 0
10 9 0
8 -9 -10 0
12 8 0
12 -11 0
-8 11 -12 0
-13 -10 0
-13 12 0
10 -12 13 0
-7 13 -14 0
7 -13 -14 0
-7 -13 14 0
7 13 14 0
-15 -4 -16 0
15 4 -16 0
-15 4 16 0
15 -4 16 0
17 4 0
17 4 0
-4 -17 0
18 -16 0
18 17 0
16 -17 -18 0
19 -14 0
19 -18 0
14 18 -19 0
-20 -9 0
-20 -15 0
9 15 20 0
-22 -20 0
-22 -21 0
20 21 22 0
3 -22 -23 0
-3 22 -23 0
3 22 23 0
-3 -22 23 0
24 -19 0
24 23 0
19 -23 -24 0
-9 -3 -25 0
9 3 -25 0
-9 3 25 0
9 -3 25 0
25 -11 -26 0
-25 11 -26 0
25 11 26 0
-25 -11 26 0
-27 -2 0
-27 -3 0
2 3 27 0
-28 -22 0
-28 12 0
22 -12 28 0
-29 27 0
-29 -28 0
-27 28 29 0
30 8 0
30 12 0
-8 -12 -30 0
-29 30 -31 0
29 -30 -31 0
-29 -30 31 0
29 30 31 0
-32 26 0
-32 31 0
-26 -31 32 0
-33 -24 0
-33 -32 0
24 32 33 0
34 -15 0
34 11 0
15 -11 -34 0
35 -33 0
35 34 0
33 -34 -35 0
-21 32 -22 31 4 26 -19 6 0
-1 -28 -32 33 0
-10 -28 -12 -4 17 0
-23 -26 31 -25 -14 18 -27 0
-18 -28 -2 3 0
14 -25 -19 10 0
-27 -2 4 0
7 -31 -35 23 11 -15 5 0
-32 25 22 34 19 15 0
35 0
